units         lj
atom_style    atomic
dimension     3
boundary      p p p 

lattice       fcc 1
region        soluto    block 9 11 0 10 0 10
region        solvente1 block 15  20  0 10 0 10
region        solvente2 block 0   5  0 10 0 10

region        box block 0 20 0 10 0 10
create_box    2 box  


create_atoms  1 region solvente1
create_atoms  1 region solvente2 
create_atoms  2 region soluto

pair_style    lj/cut 2.5

pair_coeff    1 1 1.0  1.0
pair_coeff    1 2 1.41 1.0
pair_coeff    2 2 2.0  1.0
mass          1 1.0
mass          2 1.0


# i create a group in order to use fix wall only with soluto

group         gsoluto type 2
group         gsolvente type 1
fix           1 all nve


#gsolvente = A_atoms
#gsoluto = B_atoms 

#variable step equal 0.0 

# Epsilon , Sigma  , R_cut 


velocity      all create 2 4928459
timestep      0.001

neighbor      0.3 bin
neigh_modify  every 10 delay 0 check yes

#minimize     1.0e-5 1.0e-6 1000 10000
thermo_style  custom step ke pe etotal press vol density
thermo        100
run_style     verlet

variable x equal 1.0


#fix            rwall1 gsoluto wall/lj126 xlo 7.0 v_x 1.0 1.5 pbc yes

#fix            rwall2 gsoluto wall/lj126 xhi 13 v_x 1.0 1.5 pbc yes

# output data
dump           d all xyz 100 posicion4.xyz
#dump          dd gsoluto  xyz 100 posicion4.xyz type 2
write_data     data.write


variable stepp equal step

#variable myTemp equal temp
label loop
variable a loop 5000

run 5000
#if "${stepp} == 5000"  then  "variable x equal 0.0"

#if "${stepp} == 5000"  then  "${x} equal 0.0"
if "${stepp} == 5000" then "jump SELF break" 

next a
jump SELF loop
label break
print "Walls off"
print ${stepp}
#if "${stepp} == 50000" then "unfix rwall1"
#if "${stepp} == 50000" then "unfix rwall2" 
undump d
unfix rwall1
unfix rwall2

dump          d all xyz 100 posicion44.xyz
write_data    data.write
run           5000
#print ${stepp}

