read_restart     tmp.restart.6000



lattice       fcc 1
region        soluto    block 9.5 10 0 16 0 16
region        solvente1 block 15 20 0 16 0 16
region        solvente2 block 0  4.5 0 16 0 16



# i create a group in order to use fix wall only with soluto

group         gsoluto type 2
group         gsolvente type 1
fix            1 all nve


#gsolvente = A_atoms
#gsoluto = B_atoms 


fix            rwall1 gsoluto wall/lj126 xlo 8 1.0 1.0 1.5 pbc yes
fix            rwall2 gsoluto wall/lj126 xhi 11.5 1.0 1.0 1.5 pbc yes

#unfix          rwall1
#unfix          rwall2

# Epsilon , Sigma  , R_cut 



#compute         2 all vacf
#fix             5 all vector 1 c_2[4]
#variable        diff equal dt*trap(f_5)
#1 1Diffusion coeff. 
 

thermo_style  custom step ke pe etotal press vol density 
thermo        100
run_style     verlet 


# output data

  
dump             d all xyz 100 posicion77.xyz 
reset_timestep   2000
run              4000


