
units         lj
atom_style    atomic
dimension     3
boundary      p p p 

lattice       fcc 1
region        soluto    block 9.5 10 0 16 0 16
region        solvente1 block 15 20 0 16 0 16
region        solvente2 block 0  4.5 0 16 0 16

region        box block 0 20 0 16 0 16
create_box    2 box  


create_atoms  1 region solvente1
create_atoms  1 region solvente2 
create_atoms  2 region soluto

pair_style    lj/cut 2.5

pair_coeff    1 1 1.0  1.0
pair_coeff    1 2 1.41 1.0
pair_coeff    2 2 2.0  1.0
mass          1 1.0
mass          2 1.0


# i create a group in order to use fix wall only with soluto

group         gsoluto type 2
group         gsolvente type 1
fix           1 all nve


#gsolvente = A_atoms
#gsoluto = B_atoms 


fix            rwall1 gsoluto wall/lj126 xlo 8 1.0 1.0 1.5 pbc yes
fix            rwall2 gsoluto wall/lj126 xhi 11.5 1.0 1.0 1.5 pbc yes

# Epsilon , Sigma  , R_cut 

velocity       all create 2 4928459
timestep       0.001

neighbor       0.3 bin
neigh_modify   every 10 delay 0 check yes


compute         2 all vacf
fix             5 all vector 1 c_2[4]
variable        diff equal dt*trap(f_5)
#1 1Diffusion coeff. 
 

thermo_style  custom step ke pe etotal press vol density v_diff
thermo        100
run_style     verlet 


# output data

  
dump          d all xyz 100 posicion7.xyz  

write_restart  restart.write7
restart        6000 tmp.restart

run 10000


